70
1 0 19
2 0 3
2 1 73
3 0 98
3 1 27
3 2 42
4 0 88
4 1 23
4 2 53
4 3 33
5 0 26
5 1 76
5 2 81
5 3 52
5 4 64
6 0 68
6 1 17
6 2 44
6 3 9
6 4 24
6 5 45
7 0 85
7 1 60
7 2 78
7 3 28
7 4 90
7 5 100
7 6 38
8 0 75
8 1 49
8 2 20
8 3 75
8 4 95
8 5 14
8 6 24
8 7 9
9 0 2
9 1 58
9 2 72
9 3 88
9 4 46
9 5 76
9 6 73
9 7 85
9 8 68
10 0 21
10 1 21
10 2 66
10 3 29
10 4 68
10 5 44
10 6 93
10 7 46
10 8 59
10 9 1
11 0 73
11 1 27
11 2 85
11 3 57
11 4 67
11 5 8
11 6 85
11 7 19
11 8 13
11 9 28
11 10 85
12 0 1
12 1 36
12 2 77
12 3 6
12 4 64
12 5 41
12 6 25
12 7 99
12 8 53
12 9 20
12 10 17
12 11 3
13 0 6
13 1 10
13 2 66
13 3 31
13 4 29
13 5 86
13 6 16
13 7 20
13 8 54
13 9 91
13 10 27
13 11 10
13 12 12
14 0 6
14 1 11
14 2 33
14 3 12
14 4 39
14 5 44
14 6 32
14 7 96
14 8 79
14 9 94
14 10 36
14 11 93
14 12 33
14 13 67
15 0 56
15 1 25
15 2 61
15 3 64
15 4 97
15 5 24
15 6 55
15 7 71
15 8 83
15 9 45
15 10 50
15 11 66
15 12 38
15 13 15
15 14 46
16 0 84
16 1 93
16 2 35
16 3 83
16 4 75
16 5 83
16 6 23
16 7 3
16 8 78
16 9 72
16 10 74
16 11 87
16 12 55
16 13 23
16 14 70
16 15 52
17 0 81
17 1 84
17 2 71
17 3 41
17 4 78
17 5 65
17 6 61
17 7 56
17 8 45
17 9 40
17 10 35
17 11 97
17 12 13
17 13 83
17 14 57
17 15 14
17 16 32
18 0 16
18 1 13
18 2 4
18 3 68
18 4 55
18 5 47
18 6 78
18 7 66
18 8 58
18 9 58
18 10 99
18 11 14
18 12 15
18 13 77
18 14 68
18 15 97
18 16 44
18 17 77
19 0 98
19 1 52
19 2 74
19 3 72
19 4 11
19 5 32
19 6 31
19 7 100
19 8 48
19 9 68
19 10 62
19 11 18
19 12 70
19 13 74
19 14 56
19 15 31
19 16 92
19 17 28
19 18 48
20 0 46
20 1 95
20 2 37
20 3 27
20 4 23
20 5 80
20 6 63
20 7 68
20 8 58
20 9 73
20 10 65
20 11 64
20 12 29
20 13 4
20 14 90
20 15 36
20 16 71
20 17 99
20 18 17
20 19 33
21 0 87
21 1 77
21 2 28
21 3 66
21 4 96
21 5 32
21 6 75
21 7 24
21 8 72
21 9 32
21 10 51
21 11 73
21 12 34
21 13 90
21 14 3
21 15 33
21 16 83
21 17 69
21 18 27
21 19 88
21 20 10
22 0 24
22 1 35
22 2 76
22 3 1
22 4 15
22 5 1
22 6 48
22 7 23
22 8 21
22 9 11
22 10 14
22 11 77
22 12 46
22 13 69
22 14 3
22 15 35
22 16 3
22 17 47
22 18 10
22 19 1
22 20 10
22 21 82
23 0 99
23 1 73
23 2 42
23 3 48
23 4 93
23 5 87
23 6 11
23 7 53
23 8 74
23 9 73
23 10 76
23 11 55
23 12 59
23 13 47
23 14 5
23 15 90
23 16 36
23 17 33
23 18 43
23 19 45
23 20 74
23 21 82
23 22 47
24 0 31
24 1 46
24 2 18
24 3 6
24 4 45
24 5 17
24 6 58
24 7 50
24 8 7
24 9 91
24 10 61
24 11 13
24 12 19
24 13 25
24 14 5
24 15 8
24 16 100
24 17 56
24 18 20
24 19 33
24 20 61
24 21 79
24 22 92
24 23 13
25 0 46
25 1 89
25 2 39
25 3 33
25 4 57
25 5 85
25 6 28
25 7 45
25 8 15
25 9 69
25 10 58
25 11 31
25 12 57
25 13 8
25 14 50
25 15 61
25 16 40
25 17 51
25 18 22
25 19 88
25 20 20
25 21 91
25 22 21
25 23 48
25 24 32
26 0 37
26 1 50
26 2 80
26 3 64
26 4 29
26 5 20
26 6 75
26 7 34
26 8 8
26 9 100
26 10 5
26 11 85
26 12 33
26 13 53
26 14 16
26 15 69
26 16 87
26 17 85
26 18 71
26 19 91
26 20 43
26 21 38
26 22 73
26 23 20
26 24 60
26 25 98
27 0 19
27 1 98
27 2 34
27 3 21
27 4 55
27 5 4
27 6 31
27 7 77
27 8 29
27 9 43
27 10 70
27 11 70
27 12 74
27 13 85
27 14 39
27 15 88
27 16 59
27 17 60
27 18 54
27 19 92
27 20 91
27 21 80
27 22 1
27 23 45
27 24 65
27 25 70
27 26 19
28 0 31
28 1 77
28 2 95
28 3 17
28 4 39
28 5 62
28 6 36
28 7 21
28 8 87
28 9 25
28 10 57
28 11 9
28 12 20
28 13 56
28 14 36
28 15 74
28 16 19
28 17 73
28 18 89
28 19 19
28 20 79
28 21 17
28 22 91
28 23 82
28 24 71
28 25 92
28 26 66
28 27 34
29 0 79
29 1 39
29 2 19
29 3 15
29 4 76
29 5 71
29 6 16
29 7 80
29 8 94
29 9 21
29 10 45
29 11 84
29 12 86
29 13 67
29 14 8
29 15 34
29 16 95
29 17 44
29 18 29
29 19 59
29 20 79
29 21 62
29 22 81
29 23 12
29 24 42
29 25 73
29 26 60
29 27 82
29 28 95
30 0 76
30 1 64
30 2 76
30 3 24
30 4 43
30 5 58
30 6 28
30 7 47
30 8 95
30 9 28
30 10 7
30 11 1
30 12 85
30 13 49
30 14 61
30 15 60
30 16 47
30 17 38
30 18 5
30 19 5
30 20 24
30 21 49
30 22 36
30 23 85
30 24 92
30 25 37
30 26 55
30 27 33
30 28 23
30 29 11
31 0 97
31 1 41
31 2 75
31 3 22
31 4 21
31 5 97
31 6 97
31 7 93
31 8 15
31 9 38
31 10 74
31 11 59
31 12 97
31 13 79
31 14 70
31 15 85
31 16 32
31 17 19
31 18 22
31 19 86
31 20 96
31 21 30
31 22 13
31 23 51
31 24 46
31 25 86
31 26 23
31 27 61
31 28 94
31 29 80
31 30 14
32 0 40
32 1 84
32 2 48
32 3 35
32 4 92
32 5 7
32 6 90
32 7 26
32 8 3
32 9 35
32 10 50
32 11 59
32 12 12
32 13 29
32 14 16
32 15 61
32 16 83
32 17 68
32 18 28
32 19 88
32 20 37
32 21 98
32 22 20
32 23 57
32 24 14
32 25 99
32 26 35
32 27 57
32 28 77
32 29 27
32 30 79
32 31 79
33 0 89
33 1 57
33 2 6
33 3 58
33 4 16
33 5 63
33 6 56
33 7 6
33 8 36
33 9 88
33 10 87
33 11 67
33 12 53
33 13 5
33 14 63
33 15 53
33 16 65
33 17 62
33 18 100
33 19 16
33 20 14
33 21 59
33 22 81
33 23 70
33 24 26
33 25 21
33 26 82
33 27 84
33 28 18
33 29 44
33 30 83
33 31 82
33 32 31
34 0 29
34 1 49
34 2 45
34 3 20
34 4 41
34 5 5
34 6 1
34 7 94
34 8 58
34 9 41
34 10 21
34 11 7
34 12 89
34 13 21
34 14 87
34 15 31
34 16 77
34 17 88
34 18 92
34 19 68
34 20 23
34 21 72
34 22 77
34 23 77
34 24 87
34 25 61
34 26 22
34 27 19
34 28 68
34 29 91
34 30 55
34 31 66
34 32 47
34 33 45
35 0 32
35 1 3
35 2 62
35 3 90
35 4 5
35 5 29
35 6 48
35 7 86
35 8 92
35 9 42
35 10 46
35 11 36
35 12 97
35 13 52
35 14 84
35 15 71
35 16 63
35 17 70
35 18 73
35 19 89
35 20 50
35 21 51
35 22 68
35 23 84
35 24 55
35 25 7
35 26 94
35 27 41
35 28 41
35 29 8
35 30 40
35 31 85
35 32 32
35 33 29
35 34 58
36 0 100
36 1 82
36 2 29
36 3 30
36 4 68
36 5 38
36 6 65
36 7 88
36 8 84
36 9 45
36 10 59
36 11 3
36 12 50
36 13 72
36 14 97
36 15 72
36 16 61
36 17 55
36 18 14
36 19 66
36 20 28
36 21 76
36 22 90
36 23 32
36 24 98
36 25 33
36 26 78
36 27 54
36 28 74
36 29 78
36 30 15
36 31 6
36 32 50
36 33 7
36 34 12
36 35 74
37 0 96
37 1 47
37 2 9
37 3 8
37 4 67
37 5 65
37 6 35
37 7 42
37 8 34
37 9 100
37 10 31
37 11 100
37 12 38
37 13 88
37 14 8
37 15 59
37 16 30
37 17 27
37 18 50
37 19 46
37 20 46
37 21 18
37 22 92
37 23 94
37 24 24
37 25 62
37 26 25
37 27 76
37 28 72
37 29 7
37 30 14
37 31 100
37 32 30
37 33 74
37 34 26
37 35 26
37 36 1
38 0 4
38 1 4
38 2 39
38 3 34
38 4 9
38 5 42
38 6 99
38 7 81
38 8 16
38 9 38
38 10 41
38 11 74
38 12 38
38 13 32
38 14 96
38 15 81
38 16 11
38 17 56
38 18 66
38 19 44
38 20 75
38 21 60
38 22 66
38 23 6
38 24 1
38 25 83
38 26 10
38 27 77
38 28 87
38 29 76
38 30 26
38 31 8
38 32 60
38 33 23
38 34 3
38 35 53
38 36 79
38 37 81
39 0 11
39 1 55
39 2 19
39 3 65
39 4 60
39 5 83
39 6 72
39 7 34
39 8 77
39 9 97
39 10 2
39 11 51
39 12 19
39 13 27
39 14 47
39 15 46
39 16 46
39 17 87
39 18 41
39 19 64
39 20 34
39 21 75
39 22 2
39 23 20
39 24 100
39 25 2
39 26 25
39 27 71
39 28 55
39 29 74
39 30 53
39 31 73
39 32 18
39 33 17
39 34 32
39 35 93
39 36 60
39 37 11
39 38 59
40 0 99
40 1 61
40 2 81
40 3 95
40 4 29
40 5 80
40 6 44
40 7 92
40 8 26
40 9 97
40 10 44
40 11 52
40 12 97
40 13 67
40 14 89
40 15 26
40 16 7
40 17 85
40 18 88
40 19 23
40 20 44
40 21 67
40 22 53
40 23 74
40 24 3
40 25 85
40 26 9
40 27 81
40 28 68
40 29 25
40 30 31
40 31 44
40 32 7
40 33 36
40 34 98
40 35 47
40 36 98
40 37 100
40 38 35
40 39 44
41 0 52
41 1 53
41 2 79
41 3 72
41 4 100
41 5 13
41 6 99
41 7 99
41 8 67
41 9 6
41 10 45
41 11 53
41 12 39
41 13 2
41 14 12
41 15 27
41 16 11
41 17 1
41 18 47
41 19 28
41 20 57
41 21 13
41 22 27
41 23 22
41 24 61
41 25 47
41 26 90
41 27 9
41 28 19
41 29 92
41 30 98
41 31 98
41 32 75
41 33 41
41 34 68
41 35 98
41 36 68
41 37 23
41 38 90
41 39 31
41 40 1
42 0 15
42 1 19
42 2 30
42 3 50
42 4 60
42 5 23
42 6 78
42 7 82
42 8 14
42 9 13
42 10 9
42 11 50
42 12 2
42 13 85
42 14 81
42 15 84
42 16 41
42 17 58
42 18 68
42 19 92
42 20 73
42 21 80
42 22 52
42 23 33
42 24 20
42 25 47
42 26 16
42 27 55
42 28 36
42 29 46
42 30 49
42 31 75
42 32 34
42 33 16
42 34 23
42 35 56
42 36 9
42 37 4
42 38 18
42 39 32
42 40 81
42 41 43
43 0 77
43 1 42
43 2 29
43 3 82
43 4 42
43 5 4
43 6 100
43 7 58
43 8 86
43 9 47
43 10 4
43 11 68
43 12 50
43 13 47
43 14 25
43 15 3
43 16 55
43 17 70
43 18 21
43 19 38
43 20 29
43 21 2
43 22 94
43 23 91
43 24 99
43 25 13
43 26 37
43 27 10
43 28 1
43 29 6
43 30 98
43 31 21
43 32 41
43 33 27
43 34 29
43 35 80
43 36 100
43 37 46
43 38 88
43 39 90
43 40 43
43 41 37
43 42 30
44 0 79
44 1 17
44 2 6
44 3 2
44 4 62
44 5 14
44 6 67
44 7 15
44 8 12
44 9 45
44 10 43
44 11 74
44 12 36
44 13 58
44 14 42
44 15 83
44 16 17
44 17 85
44 18 61
44 19 51
44 20 67
44 21 6
44 22 90
44 23 78
44 24 11
44 25 65
44 26 26
44 27 87
44 28 88
44 29 75
44 30 26
44 31 21
44 32 52
44 33 4
44 34 61
44 35 58
44 36 86
44 37 13
44 38 34
44 39 69
44 40 87
44 41 2
44 42 89
44 43 47
45 0 75
45 1 82
45 2 23
45 3 82
45 4 23
45 5 75
45 6 64
45 7 47
45 8 30
45 9 16
45 10 97
45 11 34
45 12 74
45 13 100
45 14 36
45 15 40
45 16 13
45 17 15
45 18 83
45 19 14
45 20 35
45 21 27
45 22 14
45 23 90
45 24 58
45 25 31
45 26 84
45 27 82
45 28 39
45 29 84
45 30 59
45 31 13
45 32 52
45 33 69
45 34 85
45 35 8
45 36 29
45 37 58
45 38 77
45 39 64
45 40 77
45 41 90
45 42 82
45 43 74
45 44 21
46 0 68
46 1 41
46 2 95
46 3 41
46 4 36
46 5 69
46 6 52
46 7 82
46 8 7
46 9 10
46 10 37
46 11 76
46 12 40
46 13 48
46 14 44
46 15 94
46 16 89
46 17 84
46 18 47
46 19 23
46 20 74
46 21 95
46 22 9
46 23 35
46 24 50
46 25 49
46 26 82
46 27 82
46 28 70
46 29 42
46 30 38
46 31 50
46 32 64
46 33 63
46 34 37
46 35 53
46 36 88
46 37 28
46 38 24
46 39 38
46 40 15
46 41 27
46 42 10
46 43 40
46 44 58
46 45 62
47 0 81
47 1 18
47 2 72
47 3 1
47 4 34
47 5 44
47 6 53
47 7 48
47 8 51
47 9 29
47 10 32
47 11 9
47 12 32
47 13 20
47 14 54
47 15 26
47 16 69
47 17 95
47 18 62
47 19 77
47 20 37
47 21 30
47 22 43
47 23 81
47 24 9
47 25 31
47 26 4
47 27 66
47 28 42
47 29 47
47 30 77
47 31 61
47 32 87
47 33 11
47 34 86
47 35 46
47 36 14
47 37 65
47 38 2
47 39 61
47 40 59
47 41 78
47 42 95
47 43 54
47 44 31
47 45 58
47 46 43
48 0 27
48 1 52
48 2 16
48 3 54
48 4 99
48 5 87
48 6 39
48 7 30
48 8 13
48 9 11
48 10 64
48 11 58
48 12 42
48 13 22
48 14 79
48 15 13
48 16 65
48 17 75
48 18 92
48 19 20
48 20 37
48 21 20
48 22 20
48 23 98
48 24 62
48 25 54
48 26 18
48 27 75
48 28 41
48 29 27
48 30 40
48 31 75
48 32 69
48 33 57
48 34 90
48 35 88
48 36 76
48 37 46
48 38 26
48 39 82
48 40 66
48 41 7
48 42 4
48 43 29
48 44 77
48 45 39
48 46 94
48 47 41
49 0 77
49 1 7
49 2 93
49 3 45
49 4 74
49 5 17
49 6 14
49 7 36
49 8 77
49 9 100
49 10 46
49 11 99
49 12 76
49 13 36
49 14 84
49 15 73
49 16 1
49 17 78
49 18 2
49 19 15
49 20 81
49 21 74
49 22 5
49 23 72
49 24 26
49 25 80
49 26 75
49 27 78
49 28 85
49 29 21
49 30 16
49 31 38
49 32 66
49 33 42
49 34 49
49 35 47
49 36 23
49 37 47
49 38 20
49 39 77
49 40 28
49 41 39
49 42 8
49 43 22
49 44 7
49 45 83
49 46 69
49 47 80
49 48 87
50 0 74
50 1 35
50 2 20
50 3 97
50 4 78
50 5 52
50 6 54
50 7 20
50 8 66
50 9 45
50 10 15
50 11 68
50 12 78
50 13 26
50 14 25
50 15 62
50 16 75
50 17 90
50 18 75
50 19 8
50 20 68
50 21 62
50 22 82
50 23 18
50 24 32
50 25 94
50 26 69
50 27 12
50 28 45
50 29 28
50 30 2
50 31 96
50 32 10
50 33 62
50 34 73
50 35 13
50 36 52
50 37 91
50 38 6
50 39 1
50 40 90
50 41 20
50 42 41
50 43 6
50 44 39
50 45 56
50 46 2
50 47 45
50 48 77
50 49 29
51 0 78
51 1 5
51 2 93
51 3 12
51 4 54
51 5 22
51 6 5
51 7 23
51 8 77
51 9 92
51 10 90
51 11 36
51 12 47
51 13 92
51 14 97
51 15 35
51 16 63
51 17 11
51 18 13
51 19 89
51 20 70
51 21 39
51 22 10
51 23 34
51 24 87
51 25 44
51 26 95
51 27 72
51 28 96
51 29 37
51 30 34
51 31 54
51 32 44
51 33 27
51 34 32
51 35 79
51 36 83
51 37 79
51 38 83
51 39 40
51 40 33
51 41 61
51 42 19
51 43 2
51 44 68
51 45 26
51 46 33
51 47 75
51 48 38
51 49 61
51 50 48
52 0 43
52 1 91
52 2 17
52 3 54
52 4 36
52 5 56
52 6 85
52 7 39
52 8 74
52 9 97
52 10 92
52 11 90
52 12 18
52 13 44
52 14 19
52 15 32
52 16 97
52 17 79
52 18 85
52 19 33
52 20 99
52 21 16
52 22 36
52 23 2
52 24 59
52 25 3
52 26 27
52 27 43
52 28 67
52 29 52
52 30 5
52 31 50
52 32 73
52 33 57
52 34 13
52 35 64
52 36 86
52 37 64
52 38 82
52 39 8
52 40 78
52 41 99
52 42 84
52 43 87
52 44 33
52 45 73
52 46 48
52 47 17
52 48 18
52 49 21
52 50 79
52 51 6
53 0 61
53 1 38
53 2 27
53 3 26
53 4 58
53 5 13
53 6 91
53 7 21
53 8 44
53 9 99
53 10 55
53 11 62
53 12 11
53 13 45
53 14 99
53 15 36
53 16 43
53 17 79
53 18 27
53 19 22
53 20 13
53 21 42
53 22 3
53 23 7
53 24 55
53 25 86
53 26 91
53 27 32
53 28 3
53 29 91
53 30 34
53 31 79
53 32 81
53 33 82
53 34 30
53 35 29
53 36 52
53 37 26
53 38 72
53 39 70
53 40 84
53 41 57
53 42 79
53 43 14
53 44 93
53 45 53
53 46 26
53 47 60
53 48 55
53 49 61
53 50 41
53 51 25
53 52 8
54 0 52
54 1 41
54 2 9
54 3 77
54 4 42
54 5 29
54 6 80
54 7 12
54 8 17
54 9 54
54 10 88
54 11 99
54 12 47
54 13 13
54 14 46
54 15 93
54 16 77
54 17 72
54 18 42
54 19 95
54 20 28
54 21 92
54 22 66
54 23 49
54 24 51
54 25 19
54 26 58
54 27 51
54 28 7
54 29 65
54 30 24
54 31 83
54 32 82
54 33 85
54 34 72
54 35 23
54 36 47
54 37 36
54 38 64
54 39 92
54 40 16
54 41 55
54 42 79
54 43 29
54 44 87
54 45 15
54 46 44
54 47 19
54 48 47
54 49 35
54 50 79
54 51 11
54 52 79
54 53 49
55 0 49
55 1 95
55 2 10
55 3 61
55 4 30
55 5 30
55 6 85
55 7 52
55 8 33
55 9 42
55 10 51
55 11 6
55 12 37
55 13 33
55 14 88
55 15 68
55 16 27
55 17 72
55 18 29
55 19 63
55 20 41
55 21 53
55 22 47
55 23 26
55 24 68
55 25 46
55 26 3
55 27 34
55 28 54
55 29 78
55 30 79
55 31 32
55 32 4
55 33 19
55 34 54
55 35 93
55 36 92
55 37 53
55 38 83
55 39 58
55 40 13
55 41 60
55 42 87
55 43 52
55 44 44
55 45 58
55 46 80
55 47 58
55 48 92
55 49 52
55 50 68
55 51 2
55 52 49
55 53 11
55 54 13
56 0 86
56 1 78
56 2 57
56 3 43
56 4 62
56 5 11
56 6 48
56 7 48
56 8 45
56 9 24
56 10 79
56 11 92
56 12 95
56 13 14
56 14 35
56 15 40
56 16 28
56 17 8
56 18 79
56 19 66
56 20 35
56 21 75
56 22 48
56 23 3
56 24 2
56 25 7
56 26 92
56 27 52
56 28 85
56 29 5
56 30 87
56 31 42
56 32 73
56 33 91
56 34 97
56 35 32
56 36 26
56 37 6
56 38 68
56 39 87
56 40 100
56 41 93
56 42 87
56 43 64
56 44 84
56 45 64
56 46 31
56 47 94
56 48 94
56 49 94
56 50 92
56 51 52
56 52 25
56 53 96
56 54 43
56 55 44
57 0 52
57 1 79
57 2 5
57 3 50
57 4 4
57 5 81
57 6 8
57 7 11
57 8 91
57 9 22
57 10 58
57 11 45
57 12 31
57 13 48
57 14 69
57 15 28
57 16 12
57 17 29
57 18 3
57 19 77
57 20 100
57 21 51
57 22 33
57 23 20
57 24 57
57 25 10
57 26 37
57 27 41
57 28 41
57 29 94
57 30 66
57 31 37
57 32 6
57 33 21
57 34 45
57 35 21
57 36 22
57 37 53
57 38 25
57 39 54
57 40 65
57 41 24
57 42 73
57 43 7
57 44 78
57 45 38
57 46 62
57 47 69
57 48 85
57 49 22
57 50 23
57 51 52
57 52 100
57 53 57
57 54 53
57 55 71
57 56 86
58 0 6
58 1 90
58 2 98
58 3 36
58 4 20
58 5 10
58 6 5
58 7 1
58 8 86
58 9 100
58 10 53
58 11 60
58 12 48
58 13 12
58 14 2
58 15 28
58 16 29
58 17 4
58 18 34
58 19 51
58 20 12
58 21 22
58 22 16
58 23 8
58 24 76
58 25 75
58 26 56
58 27 46
58 28 86
58 29 22
58 30 18
58 31 2
58 32 82
58 33 50
58 34 99
58 35 96
58 36 30
58 37 32
58 38 97
58 39 97
58 40 14
58 41 82
58 42 7
58 43 92
58 44 82
58 45 52
58 46 26
58 47 14
58 48 86
58 49 38
58 50 72
58 51 7
58 52 81
58 53 83
58 54 24
58 55 42
58 56 52
58 57 4
59 0 52
59 1 97
59 2 2
59 3 72
59 4 90
59 5 75
59 6 25
59 7 36
59 8 72
59 9 24
59 10 24
59 11 40
59 12 35
59 13 78
59 14 70
59 15 18
59 16 54
59 17 36
59 18 100
59 19 28
59 20 75
59 21 47
59 22 8
59 23 72
59 24 39
59 25 67
59 26 69
59 27 27
59 28 38
59 29 9
59 30 2
59 31 64
59 32 32
59 33 98
59 34 68
59 35 36
59 36 18
59 37 7
59 38 54
59 39 70
59 40 36
59 41 32
59 42 87
59 43 89
59 44 46
59 45 31
59 46 81
59 47 38
59 48 20
59 49 39
59 50 19
59 51 15
59 52 20
59 53 34
59 54 5
59 55 4
59 56 68
59 57 10
59 58 57
60 0 77
60 1 32
60 2 87
60 3 16
60 4 11
60 5 62
60 6 73
60 7 89
60 8 30
60 9 70
60 10 29
60 11 59
60 12 77
60 13 44
60 14 35
60 15 31
60 16 64
60 17 12
60 18 46
60 19 85
60 20 70
60 21 21
60 22 74
60 23 66
60 24 70
60 25 90
60 26 52
60 27 31
60 28 28
60 29 43
60 30 57
60 31 23
60 32 81
60 33 53
60 34 1
60 35 62
60 36 90
60 37 21
60 38 15
60 39 49
60 40 48
60 41 99
60 42 89
60 43 40
60 44 66
60 45 23
60 46 37
60 47 33
60 48 79
60 49 4
60 50 2
60 51 63
60 52 26
60 53 9
60 54 25
60 55 21
60 56 22
60 57 16
60 58 42
60 59 20
61 0 22
61 1 42
61 2 69
61 3 81
61 4 13
61 5 56
61 6 6
61 7 22
61 8 30
61 9 43
61 10 75
61 11 58
61 12 52
61 13 76
61 14 43
61 15 52
61 16 30
61 17 13
61 18 25
61 19 79
61 20 61
61 21 24
61 22 57
61 23 85
61 24 96
61 25 8
61 26 84
61 27 55
61 28 65
61 29 73
61 30 98
61 31 29
61 32 36
61 33 78
61 34 31
61 35 22
61 36 54
61 37 52
61 38 87
61 39 37
61 40 30
61 41 54
61 42 54
61 43 85
61 44 63
61 45 35
61 46 46
61 47 40
61 48 27
61 49 9
61 50 58
61 51 3
61 52 43
61 53 47
61 54 44
61 55 48
61 56 38
61 57 58
61 58 34
61 59 73
61 60 44
62 0 16
62 1 56
62 2 79
62 3 87
62 4 37
62 5 48
62 6 56
62 7 86
62 8 40
62 9 45
62 10 47
62 11 53
62 12 17
62 13 95
62 14 4
62 15 52
62 16 15
62 17 40
62 18 83
62 19 78
62 20 2
62 21 58
62 22 25
62 23 58
62 24 62
62 25 54
62 26 19
62 27 68
62 28 56
62 29 46
62 30 52
62 31 51
62 32 23
62 33 90
62 34 93
62 35 47
62 36 25
62 37 33
62 38 53
62 39 87
62 40 56
62 41 86
62 42 29
62 43 15
62 44 72
62 45 68
62 46 34
62 47 28
62 48 95
62 49 50
62 50 36
62 51 56
62 52 17
62 53 1
62 54 98
62 55 22
62 56 10
62 57 33
62 58 72
62 59 50
62 60 93
62 61 68
63 0 87
63 1 12
63 2 38
63 3 97
63 4 40
63 5 36
63 6 99
63 7 97
63 8 79
63 9 14
63 10 9
63 11 16
63 12 42
63 13 76
63 14 73
63 15 69
63 16 76
63 17 30
63 18 39
63 19 68
63 20 66
63 21 73
63 22 58
63 23 6
63 24 40
63 25 32
63 26 26
63 27 68
63 28 34
63 29 87
63 30 98
63 31 14
63 32 23
63 33 78
63 34 7
63 35 90
63 36 73
63 37 9
63 38 17
63 39 40
63 40 44
63 41 99
63 42 22
63 43 29
63 44 63
63 45 32
63 46 31
63 47 4
63 48 59
63 49 20
63 50 39
63 51 51
63 52 98
63 53 76
63 54 44
63 55 29
63 56 85
63 57 53
63 58 81
63 59 81
63 60 19
63 61 14
63 62 75
64 0 54
64 1 5
64 2 17
64 3 21
64 4 88
64 5 71
64 6 50
64 7 73
64 8 45
64 9 36
64 10 38
64 11 72
64 12 97
64 13 31
64 14 3
64 15 58
64 16 81
64 17 76
64 18 72
64 19 46
64 20 4
64 21 50
64 22 34
64 23 55
64 24 50
64 25 12
64 26 10
64 27 22
64 28 19
64 29 74
64 30 85
64 31 50
64 32 9
64 33 12
64 34 6
64 35 59
64 36 7
64 37 80
64 38 61
64 39 38
64 40 64
64 41 65
64 42 81
64 43 33
64 44 62
64 45 85
64 46 25
64 47 1
64 48 5
64 49 28
64 50 59
64 51 24
64 52 76
64 53 79
64 54 29
64 55 66
64 56 65
64 57 97
64 58 76
64 59 9
64 60 42
64 61 18
64 62 65
64 63 4
65 0 37
65 1 99
65 2 15
65 3 23
65 4 52
65 5 51
65 6 53
65 7 4
65 8 9
65 9 5
65 10 23
65 11 16
65 12 28
65 13 9
65 14 40
65 15 86
65 16 61
65 17 60
65 18 50
65 19 77
65 20 50
65 21 18
65 22 48
65 23 93
65 24 78
65 25 45
65 26 66
65 27 62
65 28 18
65 29 81
65 30 22
65 31 20
65 32 26
65 33 39
65 34 7
65 35 85
65 36 5
65 37 83
65 38 35
65 39 22
65 40 47
65 41 29
65 42 97
65 43 8
65 44 47
65 45 65
65 46 89
65 47 61
65 48 11
65 49 9
65 50 96
65 51 100
65 52 31
65 53 17
65 54 72
65 55 32
65 56 89
65 57 35
65 58 26
65 59 97
65 60 10
65 61 48
65 62 16
65 63 18
65 64 84
66 0 66
66 1 21
66 2 22
66 3 17
66 4 66
66 5 8
66 6 41
66 7 86
66 8 55
66 9 60
66 10 14
66 11 15
66 12 43
66 13 99
66 14 33
66 15 83
66 16 37
66 17 24
66 18 15
66 19 38
66 20 88
66 21 68
66 22 97
66 23 86
66 24 59
66 25 23
66 26 67
66 27 66
66 28 95
66 29 91
66 30 1
66 31 29
66 32 8
66 33 66
66 34 59
66 35 98
66 36 15
66 37 55
66 38 52
66 39 68
66 40 86
66 41 88
66 42 96
66 43 59
66 44 94
66 45 77
66 46 8
66 47 58
66 48 77
66 49 23
66 50 13
66 51 95
66 52 37
66 53 81
66 54 66
66 55 39
66 56 63
66 57 39
66 58 5
66 59 15
66 60 34
66 61 63
66 62 92
66 63 81
66 64 35
66 65 11
67 0 12
67 1 10
67 2 15
67 3 26
67 4 29
67 5 58
67 6 47
67 7 62
67 8 17
67 9 29
67 10 75
67 11 98
67 12 36
67 13 67
67 14 70
67 15 38
67 16 92
67 17 24
67 18 13
67 19 18
67 20 16
67 21 82
67 22 89
67 23 55
67 24 62
67 25 51
67 26 51
67 27 14
67 28 76
67 29 53
67 30 96
67 31 77
67 32 25
67 33 55
67 34 63
67 35 38
67 36 64
67 37 36
67 38 29
67 39 65
67 40 78
67 41 88
67 42 86
67 43 97
67 44 47
67 45 77
67 46 8
67 47 63
67 48 1
67 49 29
67 50 45
67 51 49
67 52 69
67 53 12
67 54 13
67 55 50
67 56 50
67 57 30
67 58 48
67 59 80
67 60 41
67 61 38
67 62 61
67 63 24
67 64 12
67 65 64
67 66 5
68 0 56
68 1 16
68 2 89
68 3 31
68 4 67
68 5 61
68 6 4
68 7 16
68 8 60
68 9 97
68 10 81
68 11 75
68 12 26
68 13 79
68 14 92
68 15 83
68 16 87
68 17 27
68 18 77
68 19 88
68 20 83
68 21 80
68 22 54
68 23 84
68 24 43
68 25 16
68 26 4
68 27 62
68 28 47
68 29 96
68 30 94
68 31 79
68 32 94
68 33 43
68 34 96
68 35 94
68 36 16
68 37 67
68 38 39
68 39 78
68 40 13
68 41 100
68 42 94
68 43 84
68 44 81
68 45 97
68 46 65
68 47 36
68 48 87
68 49 18
68 50 65
68 51 83
68 52 92
68 53 6
68 54 66
68 55 12
68 56 22
68 57 16
68 58 83
68 59 31
68 60 60
68 61 54
68 62 11
68 63 53
68 64 93
68 65 50
68 66 27
68 67 50
69 0 35
69 1 61
69 2 40
69 3 53
69 4 13
69 5 80
69 6 37
69 7 23
69 8 4
69 9 96
69 10 55
69 11 19
69 12 32
69 13 31
69 14 95
69 15 24
69 16 78
69 17 62
69 18 42
69 19 24
69 20 60
69 21 78
69 22 60
69 23 43
69 24 94
69 25 53
69 26 86
69 27 71
69 28 25
69 29 24
69 30 25
69 31 56
69 32 2
69 33 8
69 34 31
69 35 28
69 36 40
69 37 1
69 38 32
69 39 90
69 40 75
69 41 29
69 42 19
69 43 87
69 44 25
69 45 63
69 46 10
69 47 36
69 48 98
69 49 4
69 50 75
69 51 91
69 52 22
69 53 7
69 54 66
69 55 57
69 56 80
69 57 93
69 58 85
69 59 87
69 60 73
69 61 79
69 62 3
69 63 38
69 64 51
69 65 16
69 66 2
69 67 41
69 68 89
